c Created with the Wolfram Language : www.wolfram.com
c 
p edge 70 232
e 2 7
e 2 9
e 5 9
e 6 9
e 8 10
e 2 11
e 8 11
e 2 12
e 9 12
e 2 14
e 5 14
e 13 16
e 7 17
e 8 18
e 13 18
e 2 19
e 15 19
e 13 20
e 19 20
e 3 22
e 21 22
e 4 23
e 6 23
e 7 23
e 2 24
e 7 24
e 11 24
e 12 25
e 14 25
e 14 26
e 9 28
e 11 28
e 27 28
e 5 29
e 9 29
e 20 29
e 22 29
e 25 29
e 9 30
e 16 30
e 27 31
e 9 32
e 15 32
e 26 32
e 14 33
e 18 33
e 7 34
e 13 34
e 18 34
e 19 34
e 26 34
e 31 34
e 10 35
e 23 35
e 31 35
e 3 36
e 8 36
e 22 36
e 30 36
e 32 36
e 25 37
e 10 38
e 11 38
e 31 38
e 34 38
e 7 39
e 16 39
e 33 39
e 37 39
e 10 40
e 21 40
e 27 40
e 33 40
e 8 41
e 30 41
e 3 42
e 18 42
e 25 42
e 17 43
e 25 43
e 42 43
e 11 44
e 37 44
e 16 45
e 18 45
e 21 45
e 25 45
e 33 45
e 1 46
e 22 46
e 23 46
e 38 46
e 19 47
e 30 47
e 9 48
e 13 48
e 15 48
e 40 48
e 46 48
e 7 49
e 18 49
e 25 49
e 29 49
e 30 49
e 35 49
e 36 49
e 42 49
e 47 49
e 10 50
e 17 50
e 19 50
e 47 50
e 30 51
e 13 52
e 16 52
e 17 52
e 24 52
e 30 52
e 33 52
e 6 53
e 22 53
e 33 53
e 34 53
e 7 54
e 12 54
e 18 54
e 39 54
e 44 54
e 47 54
e 48 54
e 50 54
e 21 55
e 28 55
e 29 55
e 42 55
e 5 56
e 10 56
e 19 56
e 31 56
e 34 56
e 38 56
e 47 56
e 50 56
e 51 56
e 14 57
e 18 57
e 24 57
e 29 57
e 40 57
e 18 58
e 27 58
e 32 58
e 47 58
e 2 59
e 20 59
e 35 59
e 42 59
e 48 59
e 54 59
e 3 60
e 16 60
e 20 60
e 51 60
e 52 60
e 12 61
e 19 61
e 32 61
e 39 61
e 46 61
e 48 61
e 50 61
e 58 61
e 60 61
e 3 62
e 9 62
e 23 62
e 28 62
e 29 62
e 32 62
e 37 62
e 57 62
e 54 63
e 57 63
e 13 64
e 16 64
e 26 64
e 34 64
e 56 64
e 57 64
e 15 65
e 22 65
e 43 65
e 50 65
e 51 65
e 53 65
e 58 65
e 64 65
e 3 66
e 7 66
e 10 66
e 36 66
e 47 66
e 20 67
e 24 67
e 27 67
e 42 67
e 48 67
e 56 67
e 64 67
e 14 68
e 24 68
e 26 68
e 52 68
e 55 68
e 57 68
e 59 68
e 12 69
e 25 69
e 41 69
e 43 69
e 1 70
e 2 70
e 5 70
e 14 70
e 16 70
e 18 70
e 38 70
e 39 70
e 43 70
e 52 70
e 62 70
e 64 70
